\ENCODING=ISO-8859-1
\Problem name: LP/crossvalidation_paper/er_n=106_m=570_p=0.10_SET2_setparam=100.00_alpha=0.75_0

Maximize
 obj1: 100 x0 + 100 x1 + 100 x2 + 100 x3 + 100 x4 + 100 x5 + 100 x6 + 100 x7
       + 100 x8 + 100 x9 + 100 x10 + 100 x11 + 100 x12 + 100 x13 + 100 x14
       + 100 x15 + 100 x16 + 100 x17 + 100 x18 + 100 x19 + 100 x20 + 100 x21
       + 100 x22 + 100 x23 + 100 x24 + 100 x25 + 100 x26 + 100 x27 + 100 x28
       + 100 x29 + 100 x30 + 100 x31 + 100 x32 + 100 x33 + 100 x34 + 100 x35
       + 100 x36 + 100 x37 + 100 x38 + 100 x39 + 100 x40 + 100 x41 + 100 x42
       + 100 x43 + 100 x44 + 100 x45 + 100 x46 + 100 x47 + 100 x48 + 100 x49
       + 100 x50 + 100 x51 + 100 x52 + 100 x53 + 100 x54 + 100 x55 + 100 x56
       + 100 x57 + 100 x58 + 100 x59 + 100 x60 + 100 x61 + 100 x62 + 100 x63
       + 100 x64 + 100 x65 + 100 x66 + 100 x67 + 100 x68 + 100 x69 + 100 x70
       + 100 x71 + 100 x72 + 100 x73 + 100 x74 + 100 x75 + 100 x76 + 100 x77
       + 100 x78 + 100 x79 + 100 x80 + 100 x81 + 100 x82 + 100 x83 + 100 x84
       + 100 x85 + 100 x86 + 100 x87 + 100 x88 + 100 x89 + 100 x90 + 100 x91
       + 100 x92 + 100 x93 + 100 x94 + 100 x95 + 100 x96 + 100 x97 + 100 x98
       + 100 x99 + 100 x100 + 100 x101 + 100 x102 + 100 x103 + 100 x104
       + 100 x105 - y62_64 - y9_84 - y0_76 - y32_44 - y11_90 - y10_61 - y0_98
       - y24_104 - y5_74 - y2_104 - y56_101 - y20_75 - y10_97 - y67_80 - y35_65
       - y85_87 - y25_91 - y82_92 - y11_83 - y88_93 - y42_57 - y74_89 - y53_73
       - y36_55 - y30_69 - y65_71 - y5_93 - y1_21 - y10_104 - y66_93 - y31_103
       - y47_64 - y36_74 - y15_88 - y20_21 - y38_90 - y77_88 - y39_57 - y92_100
       - y60_93 - y3_60 - y15_79 - y7_34 - y63_65 - y29_81 - y79_91 - y72_87
       - y10_48 - y51_71 - y28_67 - y53_69 - y17_77 - y31_85 - y83_104 - y66_73
       - y8_76 - y56_70 - y33_68 - y46_70 - y11_96 - y10_78 - y82_99 - y37_80
       - y61_74 - y26_92 - y9_60 - y40_62 - y73_80 - y54_82 - y2_76 - y14_29
       - y47_95 - y88_100 - y65_102 - y71_72 - y68_94 - y61_105 - y27_57
       - y81_84 - y28_34 - y23_45 - y18_34 - y3_65 - y4_81 - y8_20 - y76_81
       - y9_17 - y42_65 - y16_77 - y21_88 - y35_98 - y41_91 - y4_20 - y45_95
       - y29_60 - y24_82 - y26_72 - y4_88 - y56_91 - y83_101 - y64_100 - y14_93
       - y70_78 - y84_85 - y70_96 - y8_60 - y31_35 - y7_58 - y74_83 - y5_77
       - y30_95 - y33_96 - y42_93 - y23_100 - y62_98 - y1_49 - y25_44 - y22_61
       - y14_78 - y12_74 - y54_62 - y15_86 - y5_37 - y4_78 - y16_57 - y75_88
       - y53_76 - y4_84 - y67_84 - y13_16 - y24_56 - y19_43 - y2_49 - y82_88
       - y15_95 - y22_46 - y11_87 - y16_26 - y6_45 - y52_79 - y31_63 - y21_102
       - y7_87 - y14_54 - y4_8 - y33_78 - y10_88 - y86_104 - y28_59 - y62_88
       - y52_86 - y7_33 - y31_36 - y16_55 - y40_52 - y53_94 - y72_84 - y55_88
       - y4_96 - y8_99 - y23_105 - y58_95 - y13_28 - y22_73 - y32_95 - y26_46
       - y35_89 - y12_77 - y27_47 - y33_48 - y59_79 - y17_21 - y23_27 - y11_23
       - y17_91 - y19_62 - y14_42 - y23_92 - y21_60 - y36_100 - y84_94 - y32_76
       - y9_94 - y86_92 - y28_39 - y33_35 - y6_40 - y88_92 - y52_66 - y78_88
       - y39_43 - y28_76 - y44_54 - y45_55 - y1_22 - y88_104 - y24_58 - y33_81
       - y46_77 - y84_101 - y61_101 - y27_61 - y25_93 - y32_57 - y22_44 - y5_44
       - y3_52 - y30_60 - y1_83 - y2_67 - y15_71 - y29_89 - y79_83 - y25_105
       - y4_93 - y38_63 - y40_85 - y45_48 - y83_96 - y60_102 - y34_102
       - y11_104 - y3_61 - y51_94 - y48_80 - y51_68 - y17_52 - y28_66 - y29_102
       - y83_105 - y12_27 - y21_87 - y13_26 - y44_88 - y8_81 - y11_71 - y33_54
       - y36_69 - y34_53 - y31_47 - y73_81 - y2_79 - y34_47 - y41_56 - y49_77
       - y78_87 - y11_51 - y19_90 - y20_84 - y25_48 - y84_88 - y35_64 - y85_86
       - y22_49 - y48_104 - y60_72 - y7_17 - y5_33 - y12_92 - y59_60 - y38_78
       - y7_47 - y29_94 - y35_55 - y3_94 - y38_58 - y1_14 - y96_105 - y18_104
       - y48_91 - y12_42 - y65_95 - y66_85 - y21_98 - y56_64 - y19_52 - y3_25
       - y26_35 - y33_51 - y4_56 - y34_56 - y15_78 - y22_31 - y14_104 - y11_38
       - y9_58 - y6_50 - y29_74 - y24_100 - y8_103 - y67_70 - y20_79 - y5_104
       - y14_61 - y12_21 - y8_77 - y2_31 - y42_102 - y55_104 - y10_79 - y0_41
       - y13_105 - y86_89 - y63_73 - y11_95 - y1_69 - y78_85 - y38_47 - y53_77
       - y17_69 - y65_67 - y19_92 - y26_97 - y44_59 - y17_95 - y47_68 - y62_100
       - y90_103 - y69_87 - y63_104 - y10_80 - y75_98 - y2_42 - y9_36 - y30_57
       - y50_74 - y53_86 - y35_101 - y24_62 - y42_104 - y18_76 - y1_38 - y61_91
       - y40_45 - y31_37 - y29_79 - y4_103 - y51_105 - y15_23 - y11_31
       - y83_100 - y47_74 - y53_99 - y18_71 - y56_66 - y47_59 - y2_60 - y32_52
       - y63_100 - y37_84 - y52_92 - y63_66 - y18_21 - y6_48 - y53_88 - y12_57
       - y17_66 - y21_105 - y19_89 - y44_62 - y17_100 - y22_67 - y0_53
       - y42_100 - y18_88 - y57_83 - y34_87 - y14_79 - y27_37 - y21_39 - y13_65
       - y5_36 - y11_81 - y9_33 - y27_91 - y6_43 - y78_91 - y29_65 - y42_59
       - y2_101 - y17_59 - y22_96 - y7_67 - y30_105 - y59_100 - y70_83 - y10_94
       - y36_72 - y48_66 - y29_90 - y35_59 - y3_66 - y40_84 - y3_104 - y25_27
       - y66_86 - y83_97 - y46_87 - y47_79 - y37_101 - y29_31 - y70_74 - y4_23
       - y37_79 - y50_105 - y97_103 - y5_48 - y12_38 - y4_91 - y49_85 - y41_48
       - y30_91 - y19_82 - y29_103 - y12_26 - y8_74 - y56_68 - y43_87 - y18_95
Subject To
 c1:   x0 + x36 <= 1
 c2:   x0 + x41 - y0_41 <= 1
 c3:   x0 + x53 - y0_53 <= 1
 c4:   x0 + x76 - y0_76 <= 1
 c5:   x0 + x98 - y0_98 <= 1
 c6:   x1 + x9 <= 1
 c7:   x1 + x14 - y1_14 <= 1
 c8:   x1 + x21 - y1_21 <= 1
 c9:   x1 + x22 - y1_22 <= 1
 c10:  x1 + x29 <= 1
 c11:  x1 + x38 - y1_38 <= 1
 c12:  x1 + x49 - y1_49 <= 1
 c13:  x1 + x66 <= 1
 c14:  x1 + x69 - y1_69 <= 1
 c15:  x1 + x83 - y1_83 <= 1
 c16:  x1 + x96 <= 1
 c17:  x2 + x11 <= 1
 c18:  x2 + x19 <= 1
 c19:  x2 + x22 <= 1
 c20:  x2 + x31 - y2_31 <= 1
 c21:  x2 + x42 - y2_42 <= 1
 c22:  x2 + x43 <= 1
 c23:  x2 + x49 - y2_49 <= 1
 c24:  x2 + x60 - y2_60 <= 1
 c25:  x2 + x67 - y2_67 <= 1
 c26:  x2 + x76 - y2_76 <= 1
 c27:  x2 + x79 - y2_79 <= 1
 c28:  x2 + x83 <= 1
 c29:  x2 + x100 <= 1
 c30:  x2 + x101 - y2_101 <= 1
 c31:  x2 + x103 <= 1
 c32:  x2 + x104 - y2_104 <= 1
 c33:  x3 + x16 <= 1
 c34:  x3 + x25 - y3_25 <= 1
 c35:  x3 + x52 - y3_52 <= 1
 c36:  x3 + x60 - y3_60 <= 1
 c37:  x3 + x61 - y3_61 <= 1
 c38:  x3 + x63 <= 1
 c39:  x3 + x65 - y3_65 <= 1
 c40:  x3 + x66 - y3_66 <= 1
 c41:  x3 + x94 - y3_94 <= 1
 c42:  x3 + x98 <= 1
 c43:  x3 + x104 - y3_104 <= 1
 c44:  x4 + x8 - y4_8 <= 1
 c45:  x4 + x9 <= 1
 c46:  x4 + x20 - y4_20 <= 1
 c47:  x4 + x23 - y4_23 <= 1
 c48:  x4 + x56 - y4_56 <= 1
 c49:  x4 + x57 <= 1
 c50:  x4 + x65 <= 1
 c51:  x4 + x78 - y4_78 <= 1
 c52:  x4 + x81 - y4_81 <= 1
 c53:  x4 + x84 - y4_84 <= 1
 c54:  x4 + x88 - y4_88 <= 1
 c55:  x4 + x89 <= 1
 c56:  x4 + x91 - y4_91 <= 1
 c57:  x4 + x93 - y4_93 <= 1
 c58:  x4 + x96 - y4_96 <= 1
 c59:  x4 + x103 - y4_103 <= 1
 c60:  x4 + x105 <= 1
 c61:  x5 + x33 - y5_33 <= 1
 c62:  x5 + x35 <= 1
 c63:  x5 + x36 - y5_36 <= 1
 c64:  x5 + x37 - y5_37 <= 1
 c65:  x5 + x44 - y5_44 <= 1
 c66:  x5 + x48 - y5_48 <= 1
 c67:  x5 + x74 - y5_74 <= 1
 c68:  x5 + x77 - y5_77 <= 1
 c69:  x5 + x93 - y5_93 <= 1
 c70:  x5 + x104 - y5_104 <= 1
 c71:  x6 + x40 - y6_40 <= 1
 c72:  x6 + x43 - y6_43 <= 1
 c73:  x6 + x45 - y6_45 <= 1
 c74:  x6 + x48 - y6_48 <= 1
 c75:  x6 + x50 - y6_50 <= 1
 c76:  x6 + x55 <= 1
 c77:  x6 + x56 <= 1
 c78:  x6 + x86 <= 1
 c79:  x6 + x89 <= 1
 c80:  x6 + x91 <= 1
 c81:  x7 + x15 <= 1
 c82:  x7 + x17 - y7_17 <= 1
 c83:  x7 + x33 - y7_33 <= 1
 c84:  x7 + x34 - y7_34 <= 1
 c85:  x7 + x47 - y7_47 <= 1
 c86:  x7 + x49 <= 1
 c87:  x7 + x52 <= 1
 c88:  x7 + x57 <= 1
 c89:  x7 + x58 - y7_58 <= 1
 c90:  x7 + x63 <= 1
 c91:  x7 + x67 - y7_67 <= 1
 c92:  x7 + x87 - y7_87 <= 1
 c93:  x8 + x20 - y8_20 <= 1
 c94:  x8 + x25 <= 1
 c95:  x8 + x44 <= 1
 c96:  x8 + x59 <= 1
 c97:  x8 + x60 - y8_60 <= 1
 c98:  x8 + x74 - y8_74 <= 1
 c99:  x8 + x76 - y8_76 <= 1
 c100: x8 + x77 - y8_77 <= 1
 c101: x8 + x80 <= 1
 c102: x8 + x81 - y8_81 <= 1
 c103: x8 + x99 - y8_99 <= 1
 c104: x8 + x103 - y8_103 <= 1
 c105: x9 + x17 - y9_17 <= 1
 c106: x9 + x23 <= 1
 c107: x9 + x33 - y9_33 <= 1
 c108: x9 + x35 <= 1
 c109: x9 + x36 - y9_36 <= 1
 c110: x9 + x58 - y9_58 <= 1
 c111: x9 + x60 - y9_60 <= 1
 c112: x9 + x84 - y9_84 <= 1
 c113: x9 + x94 - y9_94 <= 1
 c114: x9 + x96 <= 1
 c115: x10 + x48 - y10_48 <= 1
 c116: x10 + x61 - y10_61 <= 1
 c117: x10 + x78 - y10_78 <= 1
 c118: x10 + x79 - y10_79 <= 1
 c119: x10 + x80 - y10_80 <= 1
 c120: x10 + x88 - y10_88 <= 1
 c121: x10 + x94 - y10_94 <= 1
 c122: x10 + x97 - y10_97 <= 1
 c123: x10 + x100 <= 1
 c124: x10 + x104 - y10_104 <= 1
 c125: x11 + x23 - y11_23 <= 1
 c126: x11 + x29 <= 1
 c127: x11 + x31 - y11_31 <= 1
 c128: x11 + x38 - y11_38 <= 1
 c129: x11 + x51 - y11_51 <= 1
 c130: x11 + x54 <= 1
 c131: x11 + x57 <= 1
 c132: x11 + x71 - y11_71 <= 1
 c133: x11 + x81 - y11_81 <= 1
 c134: x11 + x83 - y11_83 <= 1
 c135: x11 + x87 - y11_87 <= 1
 c136: x11 + x90 - y11_90 <= 1
 c137: x11 + x95 - y11_95 <= 1
 c138: x11 + x96 - y11_96 <= 1
 c139: x11 + x104 - y11_104 <= 1
 c140: x12 + x21 - y12_21 <= 1
 c141: x12 + x26 - y12_26 <= 1
 c142: x12 + x27 - y12_27 <= 1
 c143: x12 + x33 <= 1
 c144: x12 + x38 - y12_38 <= 1
 c145: x12 + x42 - y12_42 <= 1
 c146: x12 + x57 - y12_57 <= 1
 c147: x12 + x68 <= 1
 c148: x12 + x70 <= 1
 c149: x12 + x74 - y12_74 <= 1
 c150: x12 + x77 - y12_77 <= 1
 c151: x12 + x84 <= 1
 c152: x12 + x92 - y12_92 <= 1
 c153: x13 + x16 - y13_16 <= 1
 c154: x13 + x20 <= 1
 c155: x13 + x26 - y13_26 <= 1
 c156: x13 + x28 - y13_28 <= 1
 c157: x13 + x65 - y13_65 <= 1
 c158: x13 + x105 - y13_105 <= 1
 c159: x14 + x29 - y14_29 <= 1
 c160: x14 + x42 - y14_42 <= 1
 c161: x14 + x54 - y14_54 <= 1
 c162: x14 + x61 - y14_61 <= 1
 c163: x14 + x78 - y14_78 <= 1
 c164: x14 + x79 - y14_79 <= 1
 c165: x14 + x93 - y14_93 <= 1
 c166: x14 + x103 <= 1
 c167: x14 + x104 - y14_104 <= 1
 c168: x15 + x23 - y15_23 <= 1
 c169: x15 + x71 - y15_71 <= 1
 c170: x15 + x78 - y15_78 <= 1
 c171: x15 + x79 - y15_79 <= 1
 c172: x15 + x86 - y15_86 <= 1
 c173: x15 + x88 - y15_88 <= 1
 c174: x15 + x95 - y15_95 <= 1
 c175: x15 + x98 <= 1
 c176: x16 + x26 - y16_26 <= 1
 c177: x16 + x55 - y16_55 <= 1
 c178: x16 + x57 - y16_57 <= 1
 c179: x16 + x71 <= 1
 c180: x16 + x77 - y16_77 <= 1
 c181: x17 + x21 - y17_21 <= 1
 c182: x17 + x52 - y17_52 <= 1
 c183: x17 + x59 - y17_59 <= 1
 c184: x17 + x66 - y17_66 <= 1
 c185: x17 + x69 - y17_69 <= 1
 c186: x17 + x77 - y17_77 <= 1
 c187: x17 + x91 - y17_91 <= 1
 c188: x17 + x95 - y17_95 <= 1
 c189: x17 + x100 - y17_100 <= 1
 c190: x18 + x21 - y18_21 <= 1
 c191: x18 + x34 - y18_34 <= 1
 c192: x18 + x42 <= 1
 c193: x18 + x71 - y18_71 <= 1
 c194: x18 + x76 - y18_76 <= 1
 c195: x18 + x88 - y18_88 <= 1
 c196: x18 + x95 - y18_95 <= 1
 c197: x18 + x104 - y18_104 <= 1
 c198: x19 + x43 - y19_43 <= 1
 c199: x19 + x52 - y19_52 <= 1
 c200: x19 + x62 - y19_62 <= 1
 c201: x19 + x82 - y19_82 <= 1
 c202: x19 + x89 - y19_89 <= 1
 c203: x19 + x90 - y19_90 <= 1
 c204: x19 + x92 - y19_92 <= 1
 c205: x20 + x21 - y20_21 <= 1
 c206: x20 + x24 <= 1
 c207: x20 + x32 <= 1
 c208: x20 + x75 - y20_75 <= 1
 c209: x20 + x79 - y20_79 <= 1
 c210: x20 + x84 - y20_84 <= 1
 c211: x20 + x92 <= 1
 c212: x20 + x94 <= 1
 c213: x21 + x24 <= 1
 c214: x21 + x39 - y21_39 <= 1
 c215: x21 + x41 <= 1
 c216: x21 + x60 - y21_60 <= 1
 c217: x21 + x87 - y21_87 <= 1
 c218: x21 + x88 - y21_88 <= 1
 c219: x21 + x89 <= 1
 c220: x21 + x98 - y21_98 <= 1
 c221: x21 + x102 - y21_102 <= 1
 c222: x21 + x105 - y21_105 <= 1
 c223: x22 + x31 - y22_31 <= 1
 c224: x22 + x44 - y22_44 <= 1
 c225: x22 + x46 - y22_46 <= 1
 c226: x22 + x48 <= 1
 c227: x22 + x49 - y22_49 <= 1
 c228: x22 + x61 - y22_61 <= 1
 c229: x22 + x67 - y22_67 <= 1
 c230: x22 + x73 - y22_73 <= 1
 c231: x22 + x79 <= 1
 c232: x22 + x96 - y22_96 <= 1
 c233: x22 + x102 <= 1
 c234: x23 + x27 - y23_27 <= 1
 c235: x23 + x35 <= 1
 c236: x23 + x45 - y23_45 <= 1
 c237: x23 + x92 - y23_92 <= 1
 c238: x23 + x100 - y23_100 <= 1
 c239: x23 + x105 - y23_105 <= 1
 c240: x24 + x35 <= 1
 c241: x24 + x49 <= 1
 c242: x24 + x56 - y24_56 <= 1
 c243: x24 + x58 - y24_58 <= 1
 c244: x24 + x62 - y24_62 <= 1
 c245: x24 + x82 - y24_82 <= 1
 c246: x24 + x88 <= 1
 c247: x24 + x100 - y24_100 <= 1
 c248: x24 + x104 - y24_104 <= 1
 c249: x25 + x27 - y25_27 <= 1
 c250: x25 + x44 - y25_44 <= 1
 c251: x25 + x48 - y25_48 <= 1
 c252: x25 + x58 <= 1
 c253: x25 + x70 <= 1
 c254: x25 + x77 <= 1
 c255: x25 + x91 - y25_91 <= 1
 c256: x25 + x93 - y25_93 <= 1
 c257: x25 + x105 - y25_105 <= 1
 c258: x26 + x35 - y26_35 <= 1
 c259: x26 + x46 - y26_46 <= 1
 c260: x26 + x55 <= 1
 c261: x26 + x72 - y26_72 <= 1
 c262: x26 + x92 - y26_92 <= 1
 c263: x26 + x97 - y26_97 <= 1
 c264: x27 + x37 - y27_37 <= 1
 c265: x27 + x47 - y27_47 <= 1
 c266: x27 + x57 - y27_57 <= 1
 c267: x27 + x61 - y27_61 <= 1
 c268: x27 + x91 - y27_91 <= 1
 c269: x27 + x100 <= 1
 c270: x28 + x34 - y28_34 <= 1
 c271: x28 + x39 - y28_39 <= 1
 c272: x28 + x59 - y28_59 <= 1
 c273: x28 + x66 - y28_66 <= 1
 c274: x28 + x67 - y28_67 <= 1
 c275: x28 + x74 <= 1
 c276: x28 + x76 - y28_76 <= 1
 c277: x29 + x31 - y29_31 <= 1
 c278: x29 + x60 - y29_60 <= 1
 c279: x29 + x65 - y29_65 <= 1
 c280: x29 + x74 - y29_74 <= 1
 c281: x29 + x79 - y29_79 <= 1
 c282: x29 + x81 - y29_81 <= 1
 c283: x29 + x89 - y29_89 <= 1
 c284: x29 + x90 - y29_90 <= 1
 c285: x29 + x94 - y29_94 <= 1
 c286: x29 + x102 - y29_102 <= 1
 c287: x29 + x103 - y29_103 <= 1
 c288: x30 + x57 - y30_57 <= 1
 c289: x30 + x60 - y30_60 <= 1
 c290: x30 + x68 <= 1
 c291: x30 + x69 - y30_69 <= 1
 c292: x30 + x71 <= 1
 c293: x30 + x82 <= 1
 c294: x30 + x91 - y30_91 <= 1
 c295: x30 + x95 - y30_95 <= 1
 c296: x30 + x105 - y30_105 <= 1
 c297: x31 + x35 - y31_35 <= 1
 c298: x31 + x36 - y31_36 <= 1
 c299: x31 + x37 - y31_37 <= 1
 c300: x31 + x41 <= 1
 c301: x31 + x46 <= 1
 c302: x31 + x47 - y31_47 <= 1
 c303: x31 + x63 - y31_63 <= 1
 c304: x31 + x65 <= 1
 c305: x31 + x85 - y31_85 <= 1
 c306: x31 + x103 - y31_103 <= 1
 c307: x32 + x44 - y32_44 <= 1
 c308: x32 + x52 - y32_52 <= 1
 c309: x32 + x57 - y32_57 <= 1
 c310: x32 + x76 - y32_76 <= 1
 c311: x32 + x95 - y32_95 <= 1
 c312: x33 + x35 - y33_35 <= 1
 c313: x33 + x48 - y33_48 <= 1
 c314: x33 + x51 - y33_51 <= 1
 c315: x33 + x54 - y33_54 <= 1
 c316: x33 + x68 - y33_68 <= 1
 c317: x33 + x78 - y33_78 <= 1
 c318: x33 + x81 - y33_81 <= 1
 c319: x33 + x93 <= 1
 c320: x33 + x96 - y33_96 <= 1
 c321: x33 + x97 <= 1
 c322: x34 + x47 - y34_47 <= 1
 c323: x34 + x53 - y34_53 <= 1
 c324: x34 + x56 - y34_56 <= 1
 c325: x34 + x60 <= 1
 c326: x34 + x87 - y34_87 <= 1
 c327: x34 + x98 <= 1
 c328: x34 + x102 - y34_102 <= 1
 c329: x35 + x55 - y35_55 <= 1
 c330: x35 + x59 - y35_59 <= 1
 c331: x35 + x64 - y35_64 <= 1
 c332: x35 + x65 - y35_65 <= 1
 c333: x35 + x89 - y35_89 <= 1
 c334: x35 + x94 <= 1
 c335: x35 + x98 - y35_98 <= 1
 c336: x35 + x101 - y35_101 <= 1
 c337: x36 + x55 - y36_55 <= 1
 c338: x36 + x69 - y36_69 <= 1
 c339: x36 + x72 - y36_72 <= 1
 c340: x36 + x74 - y36_74 <= 1
 c341: x36 + x77 <= 1
 c342: x36 + x93 <= 1
 c343: x36 + x100 - y36_100 <= 1
 c344: x37 + x79 - y37_79 <= 1
 c345: x37 + x80 - y37_80 <= 1
 c346: x37 + x82 <= 1
 c347: x37 + x84 - y37_84 <= 1
 c348: x37 + x90 <= 1
 c349: x37 + x101 - y37_101 <= 1
 c350: x38 + x47 - y38_47 <= 1
 c351: x38 + x58 - y38_58 <= 1
 c352: x38 + x63 - y38_63 <= 1
 c353: x38 + x78 - y38_78 <= 1
 c354: x38 + x90 - y38_90 <= 1
 c355: x39 + x43 - y39_43 <= 1
 c356: x39 + x57 - y39_57 <= 1
 c357: x39 + x85 <= 1
 c358: x39 + x91 <= 1
 c359: x40 + x44 <= 1
 c360: x40 + x45 - y40_45 <= 1
 c361: x40 + x52 - y40_52 <= 1
 c362: x40 + x62 - y40_62 <= 1
 c363: x40 + x64 <= 1
 c364: x40 + x75 <= 1
 c365: x40 + x84 - y40_84 <= 1
 c366: x40 + x85 - y40_85 <= 1
 c367: x40 + x86 <= 1
 c368: x41 + x48 - y41_48 <= 1
 c369: x41 + x56 - y41_56 <= 1
 c370: x41 + x81 <= 1
 c371: x41 + x91 - y41_91 <= 1
 c372: x42 + x57 - y42_57 <= 1
 c373: x42 + x59 - y42_59 <= 1
 c374: x42 + x65 - y42_65 <= 1
 c375: x42 + x82 <= 1
 c376: x42 + x93 - y42_93 <= 1
 c377: x42 + x100 - y42_100 <= 1
 c378: x42 + x102 - y42_102 <= 1
 c379: x42 + x104 - y42_104 <= 1
 c380: x43 + x72 <= 1
 c381: x43 + x87 - y43_87 <= 1
 c382: x43 + x88 <= 1
 c383: x44 + x54 - y44_54 <= 1
 c384: x44 + x59 - y44_59 <= 1
 c385: x44 + x62 - y44_62 <= 1
 c386: x44 + x65 <= 1
 c387: x44 + x77 <= 1
 c388: x44 + x83 <= 1
 c389: x44 + x88 - y44_88 <= 1
 c390: x44 + x103 <= 1
 c391: x45 + x48 - y45_48 <= 1
 c392: x45 + x55 - y45_55 <= 1
 c393: x45 + x95 - y45_95 <= 1
 c394: x46 + x58 <= 1
 c395: x46 + x70 - y46_70 <= 1
 c396: x46 + x73 <= 1
 c397: x46 + x77 - y46_77 <= 1
 c398: x46 + x87 - y46_87 <= 1
 c399: x46 + x96 <= 1
 c400: x46 + x101 <= 1
 c401: x47 + x59 - y47_59 <= 1
 c402: x47 + x64 - y47_64 <= 1
 c403: x47 + x68 - y47_68 <= 1
 c404: x47 + x74 - y47_74 <= 1
 c405: x47 + x79 - y47_79 <= 1
 c406: x47 + x95 - y47_95 <= 1
 c407: x47 + x103 <= 1
 c408: x48 + x54 <= 1
 c409: x48 + x66 - y48_66 <= 1
 c410: x48 + x80 - y48_80 <= 1
 c411: x48 + x86 <= 1
 c412: x48 + x91 - y48_91 <= 1
 c413: x48 + x104 - y48_104 <= 1
 c414: x49 + x77 - y49_77 <= 1
 c415: x49 + x85 - y49_85 <= 1
 c416: x49 + x93 <= 1
 c417: x50 + x74 - y50_74 <= 1
 c418: x50 + x105 - y50_105 <= 1
 c419: x51 + x68 - y51_68 <= 1
 c420: x51 + x71 - y51_71 <= 1
 c421: x51 + x85 <= 1
 c422: x51 + x94 - y51_94 <= 1
 c423: x51 + x105 - y51_105 <= 1
 c424: x52 + x66 - y52_66 <= 1
 c425: x52 + x71 <= 1
 c426: x52 + x79 - y52_79 <= 1
 c427: x52 + x86 - y52_86 <= 1
 c428: x52 + x92 - y52_92 <= 1
 c429: x53 + x69 - y53_69 <= 1
 c430: x53 + x73 - y53_73 <= 1
 c431: x53 + x76 - y53_76 <= 1
 c432: x53 + x77 - y53_77 <= 1
 c433: x53 + x86 - y53_86 <= 1
 c434: x53 + x88 - y53_88 <= 1
 c435: x53 + x94 - y53_94 <= 1
 c436: x53 + x99 - y53_99 <= 1
 c437: x54 + x62 - y54_62 <= 1
 c438: x54 + x82 - y54_82 <= 1
 c439: x55 + x84 <= 1
 c440: x55 + x88 - y55_88 <= 1
 c441: x55 + x89 <= 1
 c442: x55 + x104 - y55_104 <= 1
 c443: x56 + x64 - y56_64 <= 1
 c444: x56 + x66 - y56_66 <= 1
 c445: x56 + x68 - y56_68 <= 1
 c446: x56 + x70 - y56_70 <= 1
 c447: x56 + x91 - y56_91 <= 1
 c448: x56 + x101 - y56_101 <= 1
 c449: x57 + x67 <= 1
 c450: x57 + x83 - y57_83 <= 1
 c451: x57 + x94 <= 1
 c452: x57 + x101 <= 1
 c453: x57 + x102 <= 1
 c454: x58 + x92 <= 1
 c455: x58 + x95 - y58_95 <= 1
 c456: x58 + x104 <= 1
 c457: x59 + x60 - y59_60 <= 1
 c458: x59 + x75 <= 1
 c459: x59 + x79 - y59_79 <= 1
 c460: x59 + x93 <= 1
 c461: x59 + x100 - y59_100 <= 1
 c462: x60 + x67 <= 1
 c463: x60 + x72 - y60_72 <= 1
 c464: x60 + x79 <= 1
 c465: x60 + x93 - y60_93 <= 1
 c466: x60 + x102 - y60_102 <= 1
 c467: x61 + x64 <= 1
 c468: x61 + x74 - y61_74 <= 1
 c469: x61 + x80 <= 1
 c470: x61 + x84 <= 1
 c471: x61 + x91 - y61_91 <= 1
 c472: x61 + x101 - y61_101 <= 1
 c473: x61 + x105 - y61_105 <= 1
 c474: x62 + x64 - y62_64 <= 1
 c475: x62 + x65 <= 1
 c476: x62 + x70 <= 1
 c477: x62 + x74 <= 1
 c478: x62 + x88 - y62_88 <= 1
 c479: x62 + x98 - y62_98 <= 1
 c480: x62 + x100 - y62_100 <= 1
 c481: x63 + x65 - y63_65 <= 1
 c482: x63 + x66 - y63_66 <= 1
 c483: x63 + x73 - y63_73 <= 1
 c484: x63 + x75 <= 1
 c485: x63 + x89 <= 1
 c486: x63 + x100 - y63_100 <= 1
 c487: x63 + x104 - y63_104 <= 1
 c488: x64 + x67 <= 1
 c489: x64 + x100 - y64_100 <= 1
 c490: x65 + x67 - y65_67 <= 1
 c491: x65 + x71 - y65_71 <= 1
 c492: x65 + x95 - y65_95 <= 1
 c493: x65 + x102 - y65_102 <= 1
 c494: x65 + x103 <= 1
 c495: x66 + x70 <= 1
 c496: x66 + x73 - y66_73 <= 1
 c497: x66 + x85 - y66_85 <= 1
 c498: x66 + x86 - y66_86 <= 1
 c499: x66 + x93 - y66_93 <= 1
 c500: x67 + x70 - y67_70 <= 1
 c501: x67 + x80 - y67_80 <= 1
 c502: x67 + x84 - y67_84 <= 1
 c503: x67 + x90 <= 1
 c504: x68 + x91 <= 1
 c505: x68 + x94 - y68_94 <= 1
 c506: x68 + x95 <= 1
 c507: x69 + x87 - y69_87 <= 1
 c508: x70 + x74 - y70_74 <= 1
 c509: x70 + x78 - y70_78 <= 1
 c510: x70 + x82 <= 1
 c511: x70 + x83 - y70_83 <= 1
 c512: x70 + x96 - y70_96 <= 1
 c513: x71 + x72 - y71_72 <= 1
 c514: x72 + x84 - y72_84 <= 1
 c515: x72 + x87 - y72_87 <= 1
 c516: x73 + x79 <= 1
 c517: x73 + x80 - y73_80 <= 1
 c518: x73 + x81 - y73_81 <= 1
 c519: x74 + x83 - y74_83 <= 1
 c520: x74 + x85 <= 1
 c521: x74 + x89 - y74_89 <= 1
 c522: x74 + x102 <= 1
 c523: x75 + x88 - y75_88 <= 1
 c524: x75 + x98 - y75_98 <= 1
 c525: x76 + x81 - y76_81 <= 1
 c526: x76 + x93 <= 1
 c527: x77 + x81 <= 1
 c528: x77 + x88 - y77_88 <= 1
 c529: x78 + x85 - y78_85 <= 1
 c530: x78 + x86 <= 1
 c531: x78 + x87 - y78_87 <= 1
 c532: x78 + x88 - y78_88 <= 1
 c533: x78 + x91 - y78_91 <= 1
 c534: x78 + x98 <= 1
 c535: x78 + x102 <= 1
 c536: x78 + x103 <= 1
 c537: x79 + x83 - y79_83 <= 1
 c538: x79 + x91 - y79_91 <= 1
 c539: x79 + x99 <= 1
 c540: x81 + x84 - y81_84 <= 1
 c541: x82 + x88 - y82_88 <= 1
 c542: x82 + x92 - y82_92 <= 1
 c543: x82 + x99 - y82_99 <= 1
 c544: x83 + x96 - y83_96 <= 1
 c545: x83 + x97 - y83_97 <= 1
 c546: x83 + x100 - y83_100 <= 1
 c547: x83 + x101 - y83_101 <= 1
 c548: x83 + x104 - y83_104 <= 1
 c549: x83 + x105 - y83_105 <= 1
 c550: x84 + x85 - y84_85 <= 1
 c551: x84 + x88 - y84_88 <= 1
 c552: x84 + x94 - y84_94 <= 1
 c553: x84 + x101 - y84_101 <= 1
 c554: x85 + x86 - y85_86 <= 1
 c555: x85 + x87 - y85_87 <= 1
 c556: x85 + x97 <= 1
 c557: x86 + x89 - y86_89 <= 1
 c558: x86 + x92 - y86_92 <= 1
 c559: x86 + x104 - y86_104 <= 1
 c560: x88 + x92 - y88_92 <= 1
 c561: x88 + x93 - y88_93 <= 1
 c562: x88 + x100 - y88_100 <= 1
 c563: x88 + x104 - y88_104 <= 1
 c564: x90 + x103 - y90_103 <= 1
 c565: x91 + x99 <= 1
 c566: x92 + x99 <= 1
 c567: x92 + x100 - y92_100 <= 1
 c568: x96 + x105 - y96_105 <= 1
 c569: x97 + x103 - y97_103 <= 1
 c570: x101 + x103 <= 1
Bounds
 0 <= x0 <= 1
 0 <= x1 <= 1
 0 <= x2 <= 1
 0 <= x3 <= 1
 0 <= x4 <= 1
 0 <= x5 <= 1
 0 <= x6 <= 1
 0 <= x7 <= 1
 0 <= x8 <= 1
 0 <= x9 <= 1
 0 <= x10 <= 1
 0 <= x11 <= 1
 0 <= x12 <= 1
 0 <= x13 <= 1
 0 <= x14 <= 1
 0 <= x15 <= 1
 0 <= x16 <= 1
 0 <= x17 <= 1
 0 <= x18 <= 1
 0 <= x19 <= 1
 0 <= x20 <= 1
 0 <= x21 <= 1
 0 <= x22 <= 1
 0 <= x23 <= 1
 0 <= x24 <= 1
 0 <= x25 <= 1
 0 <= x26 <= 1
 0 <= x27 <= 1
 0 <= x28 <= 1
 0 <= x29 <= 1
 0 <= x30 <= 1
 0 <= x31 <= 1
 0 <= x32 <= 1
 0 <= x33 <= 1
 0 <= x34 <= 1
 0 <= x35 <= 1
 0 <= x36 <= 1
 0 <= x37 <= 1
 0 <= x38 <= 1
 0 <= x39 <= 1
 0 <= x40 <= 1
 0 <= x41 <= 1
 0 <= x42 <= 1
 0 <= x43 <= 1
 0 <= x44 <= 1
 0 <= x45 <= 1
 0 <= x46 <= 1
 0 <= x47 <= 1
 0 <= x48 <= 1
 0 <= x49 <= 1
 0 <= x50 <= 1
 0 <= x51 <= 1
 0 <= x52 <= 1
 0 <= x53 <= 1
 0 <= x54 <= 1
 0 <= x55 <= 1
 0 <= x56 <= 1
 0 <= x57 <= 1
 0 <= x58 <= 1
 0 <= x59 <= 1
 0 <= x60 <= 1
 0 <= x61 <= 1
 0 <= x62 <= 1
 0 <= x63 <= 1
 0 <= x64 <= 1
 0 <= x65 <= 1
 0 <= x66 <= 1
 0 <= x67 <= 1
 0 <= x68 <= 1
 0 <= x69 <= 1
 0 <= x70 <= 1
 0 <= x71 <= 1
 0 <= x72 <= 1
 0 <= x73 <= 1
 0 <= x74 <= 1
 0 <= x75 <= 1
 0 <= x76 <= 1
 0 <= x77 <= 1
 0 <= x78 <= 1
 0 <= x79 <= 1
 0 <= x80 <= 1
 0 <= x81 <= 1
 0 <= x82 <= 1
 0 <= x83 <= 1
 0 <= x84 <= 1
 0 <= x85 <= 1
 0 <= x86 <= 1
 0 <= x87 <= 1
 0 <= x88 <= 1
 0 <= x89 <= 1
 0 <= x90 <= 1
 0 <= x91 <= 1
 0 <= x92 <= 1
 0 <= x93 <= 1
 0 <= x94 <= 1
 0 <= x95 <= 1
 0 <= x96 <= 1
 0 <= x97 <= 1
 0 <= x98 <= 1
 0 <= x99 <= 1
 0 <= x100 <= 1
 0 <= x101 <= 1
 0 <= x102 <= 1
 0 <= x103 <= 1
 0 <= x104 <= 1
 0 <= x105 <= 1
 0 <= y62_64 <= 1
 0 <= y9_84 <= 1
 0 <= y0_76 <= 1
 0 <= y32_44 <= 1
 0 <= y11_90 <= 1
 0 <= y10_61 <= 1
 0 <= y0_98 <= 1
 0 <= y24_104 <= 1
 0 <= y5_74 <= 1
 0 <= y2_104 <= 1
 0 <= y56_101 <= 1
 0 <= y20_75 <= 1
 0 <= y10_97 <= 1
 0 <= y67_80 <= 1
 0 <= y35_65 <= 1
 0 <= y85_87 <= 1
 0 <= y25_91 <= 1
 0 <= y82_92 <= 1
 0 <= y11_83 <= 1
 0 <= y88_93 <= 1
 0 <= y42_57 <= 1
 0 <= y74_89 <= 1
 0 <= y53_73 <= 1
 0 <= y36_55 <= 1
 0 <= y30_69 <= 1
 0 <= y65_71 <= 1
 0 <= y5_93 <= 1
 0 <= y1_21 <= 1
 0 <= y10_104 <= 1
 0 <= y66_93 <= 1
 0 <= y31_103 <= 1
 0 <= y47_64 <= 1
 0 <= y36_74 <= 1
 0 <= y15_88 <= 1
 0 <= y20_21 <= 1
 0 <= y38_90 <= 1
 0 <= y77_88 <= 1
 0 <= y39_57 <= 1
 0 <= y92_100 <= 1
 0 <= y60_93 <= 1
 0 <= y3_60 <= 1
 0 <= y15_79 <= 1
 0 <= y7_34 <= 1
 0 <= y63_65 <= 1
 0 <= y29_81 <= 1
 0 <= y79_91 <= 1
 0 <= y72_87 <= 1
 0 <= y10_48 <= 1
 0 <= y51_71 <= 1
 0 <= y28_67 <= 1
 0 <= y53_69 <= 1
 0 <= y17_77 <= 1
 0 <= y31_85 <= 1
 0 <= y83_104 <= 1
 0 <= y66_73 <= 1
 0 <= y8_76 <= 1
 0 <= y56_70 <= 1
 0 <= y33_68 <= 1
 0 <= y46_70 <= 1
 0 <= y11_96 <= 1
 0 <= y10_78 <= 1
 0 <= y82_99 <= 1
 0 <= y37_80 <= 1
 0 <= y61_74 <= 1
 0 <= y26_92 <= 1
 0 <= y9_60 <= 1
 0 <= y40_62 <= 1
 0 <= y73_80 <= 1
 0 <= y54_82 <= 1
 0 <= y2_76 <= 1
 0 <= y14_29 <= 1
 0 <= y47_95 <= 1
 0 <= y88_100 <= 1
 0 <= y65_102 <= 1
 0 <= y71_72 <= 1
 0 <= y68_94 <= 1
 0 <= y61_105 <= 1
 0 <= y27_57 <= 1
 0 <= y81_84 <= 1
 0 <= y28_34 <= 1
 0 <= y23_45 <= 1
 0 <= y18_34 <= 1
 0 <= y3_65 <= 1
 0 <= y4_81 <= 1
 0 <= y8_20 <= 1
 0 <= y76_81 <= 1
 0 <= y9_17 <= 1
 0 <= y42_65 <= 1
 0 <= y16_77 <= 1
 0 <= y21_88 <= 1
 0 <= y35_98 <= 1
 0 <= y41_91 <= 1
 0 <= y4_20 <= 1
 0 <= y45_95 <= 1
 0 <= y29_60 <= 1
 0 <= y24_82 <= 1
 0 <= y26_72 <= 1
 0 <= y4_88 <= 1
 0 <= y56_91 <= 1
 0 <= y83_101 <= 1
 0 <= y64_100 <= 1
 0 <= y14_93 <= 1
 0 <= y70_78 <= 1
 0 <= y84_85 <= 1
 0 <= y70_96 <= 1
 0 <= y8_60 <= 1
 0 <= y31_35 <= 1
 0 <= y7_58 <= 1
 0 <= y74_83 <= 1
 0 <= y5_77 <= 1
 0 <= y30_95 <= 1
 0 <= y33_96 <= 1
 0 <= y42_93 <= 1
 0 <= y23_100 <= 1
 0 <= y62_98 <= 1
 0 <= y1_49 <= 1
 0 <= y25_44 <= 1
 0 <= y22_61 <= 1
 0 <= y14_78 <= 1
 0 <= y12_74 <= 1
 0 <= y54_62 <= 1
 0 <= y15_86 <= 1
 0 <= y5_37 <= 1
 0 <= y4_78 <= 1
 0 <= y16_57 <= 1
 0 <= y75_88 <= 1
 0 <= y53_76 <= 1
 0 <= y4_84 <= 1
 0 <= y67_84 <= 1
 0 <= y13_16 <= 1
 0 <= y24_56 <= 1
 0 <= y19_43 <= 1
 0 <= y2_49 <= 1
 0 <= y82_88 <= 1
 0 <= y15_95 <= 1
 0 <= y22_46 <= 1
 0 <= y11_87 <= 1
 0 <= y16_26 <= 1
 0 <= y6_45 <= 1
 0 <= y52_79 <= 1
 0 <= y31_63 <= 1
 0 <= y21_102 <= 1
 0 <= y7_87 <= 1
 0 <= y14_54 <= 1
 0 <= y4_8 <= 1
 0 <= y33_78 <= 1
 0 <= y10_88 <= 1
 0 <= y86_104 <= 1
 0 <= y28_59 <= 1
 0 <= y62_88 <= 1
 0 <= y52_86 <= 1
 0 <= y7_33 <= 1
 0 <= y31_36 <= 1
 0 <= y16_55 <= 1
 0 <= y40_52 <= 1
 0 <= y53_94 <= 1
 0 <= y72_84 <= 1
 0 <= y55_88 <= 1
 0 <= y4_96 <= 1
 0 <= y8_99 <= 1
 0 <= y23_105 <= 1
 0 <= y58_95 <= 1
 0 <= y13_28 <= 1
 0 <= y22_73 <= 1
 0 <= y32_95 <= 1
 0 <= y26_46 <= 1
 0 <= y35_89 <= 1
 0 <= y12_77 <= 1
 0 <= y27_47 <= 1
 0 <= y33_48 <= 1
 0 <= y59_79 <= 1
 0 <= y17_21 <= 1
 0 <= y23_27 <= 1
 0 <= y11_23 <= 1
 0 <= y17_91 <= 1
 0 <= y19_62 <= 1
 0 <= y14_42 <= 1
 0 <= y23_92 <= 1
 0 <= y21_60 <= 1
 0 <= y36_100 <= 1
 0 <= y84_94 <= 1
 0 <= y32_76 <= 1
 0 <= y9_94 <= 1
 0 <= y86_92 <= 1
 0 <= y28_39 <= 1
 0 <= y33_35 <= 1
 0 <= y6_40 <= 1
 0 <= y88_92 <= 1
 0 <= y52_66 <= 1
 0 <= y78_88 <= 1
 0 <= y39_43 <= 1
 0 <= y28_76 <= 1
 0 <= y44_54 <= 1
 0 <= y45_55 <= 1
 0 <= y1_22 <= 1
 0 <= y88_104 <= 1
 0 <= y24_58 <= 1
 0 <= y33_81 <= 1
 0 <= y46_77 <= 1
 0 <= y84_101 <= 1
 0 <= y61_101 <= 1
 0 <= y27_61 <= 1
 0 <= y25_93 <= 1
 0 <= y32_57 <= 1
 0 <= y22_44 <= 1
 0 <= y5_44 <= 1
 0 <= y3_52 <= 1
 0 <= y30_60 <= 1
 0 <= y1_83 <= 1
 0 <= y2_67 <= 1
 0 <= y15_71 <= 1
 0 <= y29_89 <= 1
 0 <= y79_83 <= 1
 0 <= y25_105 <= 1
 0 <= y4_93 <= 1
 0 <= y38_63 <= 1
 0 <= y40_85 <= 1
 0 <= y45_48 <= 1
 0 <= y83_96 <= 1
 0 <= y60_102 <= 1
 0 <= y34_102 <= 1
 0 <= y11_104 <= 1
 0 <= y3_61 <= 1
 0 <= y51_94 <= 1
 0 <= y48_80 <= 1
 0 <= y51_68 <= 1
 0 <= y17_52 <= 1
 0 <= y28_66 <= 1
 0 <= y29_102 <= 1
 0 <= y83_105 <= 1
 0 <= y12_27 <= 1
 0 <= y21_87 <= 1
 0 <= y13_26 <= 1
 0 <= y44_88 <= 1
 0 <= y8_81 <= 1
 0 <= y11_71 <= 1
 0 <= y33_54 <= 1
 0 <= y36_69 <= 1
 0 <= y34_53 <= 1
 0 <= y31_47 <= 1
 0 <= y73_81 <= 1
 0 <= y2_79 <= 1
 0 <= y34_47 <= 1
 0 <= y41_56 <= 1
 0 <= y49_77 <= 1
 0 <= y78_87 <= 1
 0 <= y11_51 <= 1
 0 <= y19_90 <= 1
 0 <= y20_84 <= 1
 0 <= y25_48 <= 1
 0 <= y84_88 <= 1
 0 <= y35_64 <= 1
 0 <= y85_86 <= 1
 0 <= y22_49 <= 1
 0 <= y48_104 <= 1
 0 <= y60_72 <= 1
 0 <= y7_17 <= 1
 0 <= y5_33 <= 1
 0 <= y12_92 <= 1
 0 <= y59_60 <= 1
 0 <= y38_78 <= 1
 0 <= y7_47 <= 1
 0 <= y29_94 <= 1
 0 <= y35_55 <= 1
 0 <= y3_94 <= 1
 0 <= y38_58 <= 1
 0 <= y1_14 <= 1
 0 <= y96_105 <= 1
 0 <= y18_104 <= 1
 0 <= y48_91 <= 1
 0 <= y12_42 <= 1
 0 <= y65_95 <= 1
 0 <= y66_85 <= 1
 0 <= y21_98 <= 1
 0 <= y56_64 <= 1
 0 <= y19_52 <= 1
 0 <= y3_25 <= 1
 0 <= y26_35 <= 1
 0 <= y33_51 <= 1
 0 <= y4_56 <= 1
 0 <= y34_56 <= 1
 0 <= y15_78 <= 1
 0 <= y22_31 <= 1
 0 <= y14_104 <= 1
 0 <= y11_38 <= 1
 0 <= y9_58 <= 1
 0 <= y6_50 <= 1
 0 <= y29_74 <= 1
 0 <= y24_100 <= 1
 0 <= y8_103 <= 1
 0 <= y67_70 <= 1
 0 <= y20_79 <= 1
 0 <= y5_104 <= 1
 0 <= y14_61 <= 1
 0 <= y12_21 <= 1
 0 <= y8_77 <= 1
 0 <= y2_31 <= 1
 0 <= y42_102 <= 1
 0 <= y55_104 <= 1
 0 <= y10_79 <= 1
 0 <= y0_41 <= 1
 0 <= y13_105 <= 1
 0 <= y86_89 <= 1
 0 <= y63_73 <= 1
 0 <= y11_95 <= 1
 0 <= y1_69 <= 1
 0 <= y78_85 <= 1
 0 <= y38_47 <= 1
 0 <= y53_77 <= 1
 0 <= y17_69 <= 1
 0 <= y65_67 <= 1
 0 <= y19_92 <= 1
 0 <= y26_97 <= 1
 0 <= y44_59 <= 1
 0 <= y17_95 <= 1
 0 <= y47_68 <= 1
 0 <= y62_100 <= 1
 0 <= y90_103 <= 1
 0 <= y69_87 <= 1
 0 <= y63_104 <= 1
 0 <= y10_80 <= 1
 0 <= y75_98 <= 1
 0 <= y2_42 <= 1
 0 <= y9_36 <= 1
 0 <= y30_57 <= 1
 0 <= y50_74 <= 1
 0 <= y53_86 <= 1
 0 <= y35_101 <= 1
 0 <= y24_62 <= 1
 0 <= y42_104 <= 1
 0 <= y18_76 <= 1
 0 <= y1_38 <= 1
 0 <= y61_91 <= 1
 0 <= y40_45 <= 1
 0 <= y31_37 <= 1
 0 <= y29_79 <= 1
 0 <= y4_103 <= 1
 0 <= y51_105 <= 1
 0 <= y15_23 <= 1
 0 <= y11_31 <= 1
 0 <= y83_100 <= 1
 0 <= y47_74 <= 1
 0 <= y53_99 <= 1
 0 <= y18_71 <= 1
 0 <= y56_66 <= 1
 0 <= y47_59 <= 1
 0 <= y2_60 <= 1
 0 <= y32_52 <= 1
 0 <= y63_100 <= 1
 0 <= y37_84 <= 1
 0 <= y52_92 <= 1
 0 <= y63_66 <= 1
 0 <= y18_21 <= 1
 0 <= y6_48 <= 1
 0 <= y53_88 <= 1
 0 <= y12_57 <= 1
 0 <= y17_66 <= 1
 0 <= y21_105 <= 1
 0 <= y19_89 <= 1
 0 <= y44_62 <= 1
 0 <= y17_100 <= 1
 0 <= y22_67 <= 1
 0 <= y0_53 <= 1
 0 <= y42_100 <= 1
 0 <= y18_88 <= 1
 0 <= y57_83 <= 1
 0 <= y34_87 <= 1
 0 <= y14_79 <= 1
 0 <= y27_37 <= 1
 0 <= y21_39 <= 1
 0 <= y13_65 <= 1
 0 <= y5_36 <= 1
 0 <= y11_81 <= 1
 0 <= y9_33 <= 1
 0 <= y27_91 <= 1
 0 <= y6_43 <= 1
 0 <= y78_91 <= 1
 0 <= y29_65 <= 1
 0 <= y42_59 <= 1
 0 <= y2_101 <= 1
 0 <= y17_59 <= 1
 0 <= y22_96 <= 1
 0 <= y7_67 <= 1
 0 <= y30_105 <= 1
 0 <= y59_100 <= 1
 0 <= y70_83 <= 1
 0 <= y10_94 <= 1
 0 <= y36_72 <= 1
 0 <= y48_66 <= 1
 0 <= y29_90 <= 1
 0 <= y35_59 <= 1
 0 <= y3_66 <= 1
 0 <= y40_84 <= 1
 0 <= y3_104 <= 1
 0 <= y25_27 <= 1
 0 <= y66_86 <= 1
 0 <= y83_97 <= 1
 0 <= y46_87 <= 1
 0 <= y47_79 <= 1
 0 <= y37_101 <= 1
 0 <= y29_31 <= 1
 0 <= y70_74 <= 1
 0 <= y4_23 <= 1
 0 <= y37_79 <= 1
 0 <= y50_105 <= 1
 0 <= y97_103 <= 1
 0 <= y5_48 <= 1
 0 <= y12_38 <= 1
 0 <= y4_91 <= 1
 0 <= y49_85 <= 1
 0 <= y41_48 <= 1
 0 <= y30_91 <= 1
 0 <= y19_82 <= 1
 0 <= y29_103 <= 1
 0 <= y12_26 <= 1
 0 <= y8_74 <= 1
 0 <= y56_68 <= 1
 0 <= y43_87 <= 1
 0 <= y18_95 <= 1
Binaries
 x0  x1  x2  x3  x4  x5  x6  x7  x8  x9  x10  x11  x12  x13  x14  x15  x16 
 x17  x18  x19  x20  x21  x22  x23  x24  x25  x26  x27  x28  x29  x30  x31 
 x32  x33  x34  x35  x36  x37  x38  x39  x40  x41  x42  x43  x44  x45  x46 
 x47  x48  x49  x50  x51  x52  x53  x54  x55  x56  x57  x58  x59  x60  x61 
 x62  x63  x64  x65  x66  x67  x68  x69  x70  x71  x72  x73  x74  x75  x76 
 x77  x78  x79  x80  x81  x82  x83  x84  x85  x86  x87  x88  x89  x90  x91 
 x92  x93  x94  x95  x96  x97  x98  x99  x100  x101  x102  x103  x104  x105 
 y62_64  y9_84  y0_76  y32_44  y11_90  y10_61  y0_98  y24_104  y5_74  y2_104 
 y56_101  y20_75  y10_97  y67_80  y35_65  y85_87  y25_91  y82_92  y11_83 
 y88_93  y42_57  y74_89  y53_73  y36_55  y30_69  y65_71  y5_93  y1_21  y10_104 
 y66_93  y31_103  y47_64  y36_74  y15_88  y20_21  y38_90  y77_88  y39_57 
 y92_100  y60_93  y3_60  y15_79  y7_34  y63_65  y29_81  y79_91  y72_87  y10_48 
 y51_71  y28_67  y53_69  y17_77  y31_85  y83_104  y66_73  y8_76  y56_70 
 y33_68  y46_70  y11_96  y10_78  y82_99  y37_80  y61_74  y26_92  y9_60  y40_62 
 y73_80  y54_82  y2_76  y14_29  y47_95  y88_100  y65_102  y71_72  y68_94 
 y61_105  y27_57  y81_84  y28_34  y23_45  y18_34  y3_65  y4_81  y8_20  y76_81 
 y9_17  y42_65  y16_77  y21_88  y35_98  y41_91  y4_20  y45_95  y29_60  y24_82 
 y26_72  y4_88  y56_91  y83_101  y64_100  y14_93  y70_78  y84_85  y70_96 
 y8_60  y31_35  y7_58  y74_83  y5_77  y30_95  y33_96  y42_93  y23_100  y62_98 
 y1_49  y25_44  y22_61  y14_78  y12_74  y54_62  y15_86  y5_37  y4_78  y16_57 
 y75_88  y53_76  y4_84  y67_84  y13_16  y24_56  y19_43  y2_49  y82_88  y15_95 
 y22_46  y11_87  y16_26  y6_45  y52_79  y31_63  y21_102  y7_87  y14_54  y4_8 
 y33_78  y10_88  y86_104  y28_59  y62_88  y52_86  y7_33  y31_36  y16_55 
 y40_52  y53_94  y72_84  y55_88  y4_96  y8_99  y23_105  y58_95  y13_28  y22_73 
 y32_95  y26_46  y35_89  y12_77  y27_47  y33_48  y59_79  y17_21  y23_27 
 y11_23  y17_91  y19_62  y14_42  y23_92  y21_60  y36_100  y84_94  y32_76 
 y9_94  y86_92  y28_39  y33_35  y6_40  y88_92  y52_66  y78_88  y39_43  y28_76 
 y44_54  y45_55  y1_22  y88_104  y24_58  y33_81  y46_77  y84_101  y61_101 
 y27_61  y25_93  y32_57  y22_44  y5_44  y3_52  y30_60  y1_83  y2_67  y15_71 
 y29_89  y79_83  y25_105  y4_93  y38_63  y40_85  y45_48  y83_96  y60_102 
 y34_102  y11_104  y3_61  y51_94  y48_80  y51_68  y17_52  y28_66  y29_102 
 y83_105  y12_27  y21_87  y13_26  y44_88  y8_81  y11_71  y33_54  y36_69 
 y34_53  y31_47  y73_81  y2_79  y34_47  y41_56  y49_77  y78_87  y11_51  y19_90 
 y20_84  y25_48  y84_88  y35_64  y85_86  y22_49  y48_104  y60_72  y7_17  y5_33 
 y12_92  y59_60  y38_78  y7_47  y29_94  y35_55  y3_94  y38_58  y1_14  y96_105 
 y18_104  y48_91  y12_42  y65_95  y66_85  y21_98  y56_64  y19_52  y3_25 
 y26_35  y33_51  y4_56  y34_56  y15_78  y22_31  y14_104  y11_38  y9_58  y6_50 
 y29_74  y24_100  y8_103  y67_70  y20_79  y5_104  y14_61  y12_21  y8_77  y2_31 
 y42_102  y55_104  y10_79  y0_41  y13_105  y86_89  y63_73  y11_95  y1_69 
 y78_85  y38_47  y53_77  y17_69  y65_67  y19_92  y26_97  y44_59  y17_95 
 y47_68  y62_100  y90_103  y69_87  y63_104  y10_80  y75_98  y2_42  y9_36 
 y30_57  y50_74  y53_86  y35_101  y24_62  y42_104  y18_76  y1_38  y61_91 
 y40_45  y31_37  y29_79  y4_103  y51_105  y15_23  y11_31  y83_100  y47_74 
 y53_99  y18_71  y56_66  y47_59  y2_60  y32_52  y63_100  y37_84  y52_92 
 y63_66  y18_21  y6_48  y53_88  y12_57  y17_66  y21_105  y19_89  y44_62 
 y17_100  y22_67  y0_53  y42_100  y18_88  y57_83  y34_87  y14_79  y27_37 
 y21_39  y13_65  y5_36  y11_81  y9_33  y27_91  y6_43  y78_91  y29_65  y42_59 
 y2_101  y17_59  y22_96  y7_67  y30_105  y59_100  y70_83  y10_94  y36_72 
 y48_66  y29_90  y35_59  y3_66  y40_84  y3_104  y25_27  y66_86  y83_97  y46_87 
 y47_79  y37_101  y29_31  y70_74  y4_23  y37_79  y50_105  y97_103  y5_48 
 y12_38  y4_91  y49_85  y41_48  y30_91  y19_82  y29_103  y12_26  y8_74  y56_68 
 y43_87  y18_95 
End
